
Gurobi 11.0.0 (win64) logging started Sat Jun 15 09:56:58 2024

Set parameter LogFile to value "./GurobiLog/stage_2_iter_13.log"
Gurobi Optimizer version 11.0.0 build v11.0.0rc2 (win64 - Windows 10.0 (18363.2))

CPU model: Intel(R) Core(TM) i7-8700 CPU @ 3.20GHz, instruction set [SSE2|AVX|AVX2]
Thread count: 6 physical cores, 12 logical processors, using up to 1 threads

Optimize a model with 1494 rows, 20463 columns and 95583 nonzeros
Coefficient statistics:
  Matrix range     [1e-02, 7e+03]
  Objective range  [1e-01, 2e+05]
  Bounds range     [8e-01, 5e+05]
  RHS range        [1e+00, 7e+04]
LP warm-start: use basis
Iteration    Objective       Primal Inf.    Dual Inf.      Time
       0    2.0246045e+04   4.682914e+03   0.000000e+00      0s
      99    2.6762548e+04   0.000000e+00   0.000000e+00      0s

Solved in 99 iterations and 0.01 seconds (0.00 work units)
Optimal objective  2.676254828e+04

Gurobi 11.0.0 (win64) logging started Sat Jun 15 10:55:08 2024

Set parameter LogFile to value "./GurobiLog/stage_2_iter_13.log"
Gurobi Optimizer version 11.0.0 build v11.0.0rc2 (win64 - Windows 10.0 (18363.2))

CPU model: Intel(R) Core(TM) i7-8700 CPU @ 3.20GHz, instruction set [SSE2|AVX|AVX2]
Thread count: 6 physical cores, 12 logical processors, using up to 1 threads

Optimize a model with 1494 rows, 20463 columns and 94915 nonzeros
Coefficient statistics:
  Matrix range     [3e-03, 1e+04]
  Objective range  [1e-01, 2e+05]
  Bounds range     [6e-02, 6e+05]
  RHS range        [1e+00, 6e+04]
LP warm-start: use basis
Iteration    Objective       Primal Inf.    Dual Inf.      Time
       0    1.4573147e+04   2.073073e+03   0.000000e+00      0s
     148    2.4507024e+04   0.000000e+00   0.000000e+00      0s

Solved in 148 iterations and 0.02 seconds (0.02 work units)
Optimal objective  2.450702429e+04
